* ENCODING=ISO-8859-1
NAME          CPLEX
ROWS
 N  obj1    
 G  c1      
 G  c2      
 G  c3      
 G  c4      
 G  c5      
 G  c6      
 G  c7      
 G  c8      
 G  c9      
 G  c10     
 G  c11     
 G  c12     
 G  c13     
 G  c14     
 G  c15     
 G  c16     
 G  c17     
 G  c18     
 G  c19     
 G  c20     
 G  c21     
 G  c22     
 G  c23     
 G  c24     
 G  c25     
 G  c26     
 G  c27     
 G  c28     
 G  c29     
 G  c30     
 G  c31     
 G  c32     
 G  c33     
 G  c34     
 G  c35     
COLUMNS
    MARK0000  'MARKER'                 'INTORG'
    x1        obj1                            1
    x1        c3                            955
    x1        c34                           531
    x2        obj1                            1
    x2        c2                            380
    x2        c5                            740
    x2        c10                           712
    x2        c28                           829
    x3        obj1                            1
    x3        c9                            418
    x3        c20                           765
    x3        c28                           507
    x3        c33                           782
    x4        obj1                            1
    x4        c10                           745
    x4        c18                           707
    x4        c27                           624
    x4        c32                           719
    x4        c33                           282
    x4        c34                           511
    x5        obj1                            1
    x5        c26                           502
    x6        obj1                            1
    x6        c16                           365
    x6        c18                           871
    x6        c23                           116
    x6        c35                           349
    x7        obj1                            1
    x7        c7                            645
    x7        c9                            187
    x7        c13                           458
    x7        c26                           992
    x8        obj1                            1
    x8        c7                            426
    x8        c23                           598
    x8        c29                           687
    x9        obj1                            1
    x10       obj1                            1
    x10       c15                           295
    x10       c22                           780
    x10       c28                           885
    x11       obj1                            1
    x11       c4                            199
    x11       c5                            727
    x11       c9                            268
    x11       c12                           684
    x11       c19                           981
    x11       c24                           875
    x11       c34                           800
    x12       obj1                            1
    x12       c6                            915
    x12       c8                            325
    x12       c30                           807
    x13       obj1                            1
    x13       c3                            313
    x13       c17                           123
    x13       c30                           996
    x13       c31                           188
    x14       obj1                            1
    x14       c9                            130
    x14       c11                           475
    x14       c18                           757
    x15       obj1                            1
    x15       c5                            842
    x15       c8                            174
    x15       c14                           798
    x15       c29                           439
    x16       obj1                            1
    x16       c12                           613
    x16       c24                           703
    x17       obj1                            1
    x17       c5                            607
    x17       c16                           329
    x17       c18                           409
    x17       c32                           191
    x18       obj1                            1
    x18       c1                            389
    x18       c8                            757
    x18       c11                           482
    x18       c24                           417
    x18       c26                           523
    x19       obj1                            1
    x19       c9                            596
    x19       c13                           611
    x20       obj1                            1
    x20       c11                           471
    x20       c34                           225
    x21       obj1                            1
    x21       c4                            400
    x21       c31                           402
    x21       c35                           193
    x22       obj1                            1
    x22       c24                           302
    x22       c31                           759
    x22       c33                           180
    x23       obj1                            1
    x23       c5                            734
    x24       obj1                            1
    x24       c10                           562
    x24       c11                           473
    x24       c15                           810
    x24       c33                           234
    x25       obj1                            1
    x25       c5                            589
    x25       c8                            775
    x25       c13                           634
    x25       c15                           751
    x26       obj1                            1
    x26       c5                            177
    x26       c12                           975
    x26       c14                           661
    x26       c16                           565
    x26       c33                           126
    x26       c35                           738
    x27       obj1                            1
    x27       c1                            626
    x27       c28                           159
    x28       obj1                            1
    x28       c3                            654
    x28       c17                           636
    x28       c19                           497
    x28       c35                           749
    x29       obj1                            1
    x29       c7                            430
    x29       c9                            980
    x29       c18                           999
    x29       c22                           899
    x29       c33                           431
    x30       obj1                            1
    x30       c13                           289
    x30       c21                           657
    x30       c23                           675
    x30       c25                           909
    x30       c28                           702
    x31       obj1                            1
    x31       c12                           904
    x32       obj1                            1
    x32       c12                           414
    x32       c18                           383
    x32       c20                           308
    x32       c24                           809
    x32       c30                           366
    x32       c31                           949
    x33       obj1                            1
    x33       c21                           104
    x33       c27                           538
    x33       c34                           706
    x34       obj1                            1
    x34       c24                           719
    x34       c31                           861
    x34       c33                           587
    x35       obj1                            1
    x35       c5                            161
    x35       c21                           238
    x35       c22                           167
    x35       c24                           958
    x35       c27                           396
    x35       c30                           152
    x35       c33                           205
    x36       obj1                            1
    x36       c8                            582
    x36       c13                           630
    x36       c21                           136
    x36       c24                           666
    x37       obj1                            1
    x37       c6                            883
    x37       c12                           982
    x37       c24                           109
    x38       obj1                            1
    x38       c14                           385
    x38       c22                           532
    x39       obj1                            1
    x39       c9                            345
    x39       c22                           391
    x39       c28                           388
    x39       c34                           841
    x40       obj1                            1
    x40       c11                           509
    x40       c22                           564
    x41       obj1                            1
    x41       c1                            958
    x41       c3                            471
    x41       c11                           277
    x42       obj1                            1
    x42       c7                            155
    x42       c14                           488
    x42       c15                           494
    x42       c18                          1000
    x42       c33                           487
    x43       obj1                            1
    x43       c11                           929
    x43       c17                           495
    x43       c28                           172
    x43       c30                           706
    x44       obj1                            1
    x44       c18                           369
    x44       c29                           855
    x45       obj1                            1
    x45       c8                            326
    x45       c10                           212
    x45       c13                           238
    x45       c21                           952
    x45       c25                           127
    x46       obj1                            1
    x46       c10                           211
    x46       c15                           137
    x46       c29                           679
    x47       obj1                            1
    x47       c7                            668
    x47       c14                           127
    x47       c17                           164
    x47       c27                           991
    x47       c28                           473
    x48       obj1                            1
    x48       c4                            689
    x48       c33                           401
    x49       obj1                            1
    x49       c15                           943
    x49       c16                           821
    x49       c21                           247
    x49       c22                           965
    x49       c28                           336
    x49       c31                           806
    x49       c32                           122
    x50       obj1                            1
    x50       c21                           125
    x50       c27                           880
    x51       obj1                            1
    x51       c19                           680
    x51       c32                           903
    x51       c34                           479
    x52       obj1                            1
    x52       c9                            932
    x52       c14                           225
    x52       c23                           149
    x52       c27                           210
    x53       obj1                            1
    x53       c1                            417
    x53       c7                            138
    x53       c20                           986
    x53       c29                           527
    x54       obj1                            1
    x54       c2                            145
    x54       c4                            526
    x55       obj1                            1
    x55       c3                            538
    x55       c4                            593
    x55       c15                           524
    x55       c34                           842
    x56       obj1                            1
    x56       c18                           824
    x56       c21                           391
    x56       c28                           701
    x56       c29                           327
    x57       obj1                            1
    x57       c9                            489
    x57       c22                           128
    x57       c25                           520
    x58       obj1                            1
    x58       c9                            397
    x58       c20                           565
    x59       obj1                            1
    x59       c2                            895
    x59       c6                            375
    x59       c15                           977
    x59       c19                           882
    x59       c21                           682
    x60       obj1                            1
    x60       c25                           660
    x60       c29                           447
    x61       obj1                            1
    x61       c12                           311
    x61       c17                           721
    x61       c31                           238
    x62       obj1                            1
    x62       c6                            250
    x62       c15                           365
    x62       c35                           390
    x63       obj1                            1
    x63       c8                            890
    x63       c10                           668
    x63       c11                           619
    x64       obj1                            1
    x64       c7                            752
    x64       c30                           812
    x64       c31                           550
    x65       obj1                            1
    x65       c7                            198
    x65       c18                           526
    x65       c32                           920
    x66       obj1                            1
    x66       c11                           997
    x66       c21                           927
    x67       obj1                            1
    x67       c2                            438
    x67       c25                           313
    x67       c26                           308
    x67       c27                           104
    x67       c32                           428
    x68       obj1                            1
    x68       c12                           633
    x68       c22                           449
    x68       c34                           899
    x69       obj1                            1
    x69       c4                            852
    x69       c13                           831
    x69       c34                           263
    x70       obj1                            1
    x70       c10                           603
    x70       c19                           509
    x70       c22                           709
    MARK0001  'MARKER'                 'INTEND'
RHS
    rhs       c1                           1195
    rhs       c2                            929
    rhs       c3                           1466
    rhs       c4                           1630
    rhs       c5                           2289
    rhs       c6                           1212
    rhs       c7                           1706
    rhs       c8                           1915
    rhs       c9                           2371
    rhs       c10                          1857
    rhs       c11                          2616
    rhs       c12                          2758
    rhs       c13                          1846
    rhs       c14                          1342
    rhs       c15                          2648
    rhs       c16                          1040
    rhs       c17                          1070
    rhs       c18                          3423
    rhs       c19                          1775
    rhs       c20                          1312
    rhs       c21                          2230
    rhs       c22                          2792
    rhs       c23                           769
    rhs       c24                          2779
    rhs       c25                          1265
    rhs       c26                          1163
    rhs       c27                          1872
    rhs       c28                          2576
    rhs       c29                          1981
    rhs       c30                          1920
    rhs       c31                          2377
    rhs       c32                          1642
    rhs       c33                          1858
    rhs       c34                          3049
    rhs       c35                          1210
BOUNDS
 LI bnd       x1        0
 LI bnd       x2        0
 LI bnd       x3        0
 LI bnd       x4        0
 LI bnd       x5        0
 LI bnd       x6        0
 LI bnd       x7        0
 LI bnd       x8        0
 LI bnd       x9        0
 LI bnd       x10       0
 LI bnd       x11       0
 LI bnd       x12       0
 LI bnd       x13       0
 LI bnd       x14       0
 LI bnd       x15       0
 LI bnd       x16       0
 LI bnd       x17       0
 LI bnd       x18       0
 LI bnd       x19       0
 LI bnd       x20       0
 LI bnd       x21       0
 LI bnd       x22       0
 LI bnd       x23       0
 LI bnd       x24       0
 LI bnd       x25       0
 LI bnd       x26       0
 LI bnd       x27       0
 LI bnd       x28       0
 LI bnd       x29       0
 LI bnd       x30       0
 LI bnd       x31       0
 LI bnd       x32       0
 LI bnd       x33       0
 LI bnd       x34       0
 LI bnd       x35       0
 LI bnd       x36       0
 LI bnd       x37       0
 LI bnd       x38       0
 LI bnd       x39       0
 LI bnd       x40       0
 LI bnd       x41       0
 LI bnd       x42       0
 LI bnd       x43       0
 LI bnd       x44       0
 LI bnd       x45       0
 LI bnd       x46       0
 LI bnd       x47       0
 LI bnd       x48       0
 LI bnd       x49       0
 LI bnd       x50       0
 LI bnd       x51       0
 LI bnd       x52       0
 LI bnd       x53       0
 LI bnd       x54       0
 LI bnd       x55       0
 LI bnd       x56       0
 LI bnd       x57       0
 LI bnd       x58       0
 LI bnd       x59       0
 LI bnd       x60       0
 LI bnd       x61       0
 LI bnd       x62       0
 LI bnd       x63       0
 LI bnd       x64       0
 LI bnd       x65       0
 LI bnd       x66       0
 LI bnd       x67       0
 LI bnd       x68       0
 LI bnd       x69       0
 LI bnd       x70       0
ENDATA
